SCM AMPL PROJECTS/LAB WORKSHOP 3/WORKSHOP 2 DELIVERABLE 2/homework3 workshop 2/homework3.1.3/homework3.1.3.txt
falta probar el ejercicio pero ya esta todo modificado